c 
c G(k,n,p) graph
c graph gen seed     : 546
c number of vertices : 50
c max number of edges: 625
c number of classes  : 2
c edge density       : 0.300000
c edge probability   : 0.600000
c data structure     : dense
c
c           Graph Stats
c number of vertices  : 50
c nonisolated vertices: 50
c number of edges     : 375
c edge density        : 0.306122
c max degree          : 20
c avg degree          : 15.00
c min degree          : 10
p col 50 375
e 1 10
e 1 11
e 1 13
e 1 14
e 1 15
e 1 23
e 1 24
e 1 43
e 1 47
e 1 48
e 1 49
e 2 8
e 2 9
e 2 11
e 2 13
e 2 18
e 2 21
e 2 22
e 2 23
e 2 24
e 2 27
e 2 36
e 2 37
e 2 38
e 2 40
e 2 43
e 2 44
e 2 47
e 2 48
e 2 49
e 3 4
e 3 10
e 3 12
e 3 13
e 3 14
e 3 18
e 3 21
e 3 22
e 3 24
e 3 36
e 3 37
e 3 38
e 3 44
e 4 5
e 4 20
e 4 30
e 4 31
e 4 32
e 4 35
e 4 41
e 4 45
e 4 50
e 5 8
e 5 11
e 5 12
e 5 14
e 5 15
e 5 22
e 5 23
e 5 29
e 5 34
e 5 36
e 5 37
e 5 43
e 5 49
e 6 9
e 6 10
e 6 11
e 6 12
e 6 13
e 6 18
e 6 24
e 6 29
e 6 34
e 6 36
e 6 38
e 6 40
e 6 43
e 6 44
e 6 47
e 7 9
e 7 10
e 7 11
e 7 12
e 7 13
e 7 15
e 7 18
e 7 21
e 7 22
e 7 27
e 7 37
e 7 38
e 7 40
e 7 43
e 7 47
e 7 48
e 8 16
e 8 17
e 8 20
e 8 26
e 8 28
e 8 31
e 8 32
e 8 33
e 8 41
e 8 42
e 8 45
e 8 46
e 8 50
e 9 16
e 9 26
e 9 30
e 9 31
e 9 33
e 9 41
e 9 45
e 9 50
e 10 16
e 10 17
e 10 19
e 10 28
e 10 32
e 10 33
e 10 35
e 10 39
e 10 41
e 10 42
e 10 45
e 10 50
e 11 17
e 11 19
e 11 26
e 11 30
e 11 32
e 11 33
e 11 39
e 11 42
e 11 50
e 12 16
e 12 20
e 12 31
e 12 32
e 12 33
e 12 35
e 12 41
e 12 46
e 13 19
e 13 20
e 13 26
e 13 30
e 13 31
e 13 32
e 13 33
e 13 35
e 13 39
e 13 41
e 13 42
e 13 50
e 14 16
e 14 17
e 14 19
e 14 20
e 14 25
e 14 26
e 14 30
e 14 31
e 14 33
e 14 35
e 14 39
e 14 41
e 14 42
e 15 16
e 15 17
e 15 26
e 15 35
e 15 41
e 15 45
e 15 46
e 15 50
e 16 18
e 16 21
e 16 24
e 16 27
e 16 29
e 16 34
e 16 36
e 16 37
e 16 38
e 16 43
e 16 44
e 16 47
e 16 48
e 16 49
e 17 21
e 17 22
e 17 27
e 17 29
e 17 36
e 17 37
e 17 38
e 17 40
e 17 43
e 17 47
e 17 48
e 18 19
e 18 20
e 18 25
e 18 26
e 18 32
e 18 33
e 18 41
e 18 42
e 18 45
e 18 46
e 18 50
e 19 22
e 19 24
e 19 29
e 19 34
e 19 37
e 19 40
e 19 43
e 19 47
e 19 49
e 20 21
e 20 23
e 20 24
e 20 29
e 20 34
e 20 36
e 20 37
e 20 38
e 20 44
e 20 47
e 20 48
e 21 25
e 21 28
e 21 31
e 21 35
e 21 39
e 21 46
e 21 50
e 22 26
e 22 30
e 22 31
e 22 32
e 22 33
e 22 39
e 22 41
e 22 42
e 22 45
e 22 46
e 23 25
e 23 26
e 23 31
e 23 32
e 23 35
e 23 39
e 23 41
e 23 42
e 23 50
e 24 25
e 24 26
e 24 28
e 24 30
e 24 31
e 24 32
e 24 33
e 24 39
e 24 46
e 25 27
e 25 29
e 25 34
e 25 36
e 25 37
e 25 38
e 25 40
e 25 43
e 25 44
e 25 47
e 26 29
e 26 36
e 26 37
e 26 38
e 26 43
e 26 44
e 26 47
e 26 49
e 27 28
e 27 39
e 27 42
e 27 45
e 27 46
e 28 36
e 28 37
e 28 38
e 28 43
e 28 49
e 29 31
e 29 33
e 29 39
e 29 45
e 29 46
e 29 50
e 30 36
e 30 38
e 30 44
e 30 48
e 30 49
e 31 36
e 31 37
e 31 40
e 31 43
e 31 48
e 31 49
e 32 34
e 32 36
e 32 37
e 32 38
e 32 43
e 32 47
e 33 34
e 33 44
e 33 48
e 33 49
e 34 35
e 34 39
e 34 42
e 34 46
e 34 50
e 35 36
e 35 38
e 35 43
e 35 48
e 35 49
e 36 41
e 36 42
e 36 45
e 36 46
e 37 39
e 37 42
e 37 45
e 37 46
e 38 39
e 38 41
e 38 42
e 38 45
e 38 46
e 39 40
e 39 47
e 39 48
e 39 49
e 40 41
e 40 42
e 40 45
e 40 46
e 40 50
e 41 47
e 42 43
e 42 47
e 42 48
e 42 49
e 43 46
e 43 50
e 44 45
e 44 46
e 44 50
e 45 47
e 45 48
e 45 49
e 46 47
e 46 49
e 47 50
e 48 50
e 49 50
